NAME          
ROWS
 N  OBJ
 L  c1
 L  c2
 L  c3
 L  c4
 L  c5
COLUMNS
    MARKER    'MARKER'                 'INTORG'
    x[1]      c1        615
    x[1]      c2        603
    x[1]      c3        765
    x[1]      c4        551
    x[1]      c5        586
    x[1]      OBJ       -380
    x[2]      c1        753
    x[2]      c2        404
    x[2]      c3        578
    x[2]      c4        404
    x[2]      c5        975
    x[2]      OBJ       -378
    x[3]      c1        665
    x[3]      c2        450
    x[3]      c3        952
    x[3]      c4        854
    x[3]      c5        977
    x[3]      OBJ       -874
    x[4]      c1        135
    x[4]      c2        919
    x[4]      c3        786
    x[4]      c4        733
    x[4]      c5        528
    x[4]      OBJ       -85
    x[5]      c1        322
    x[5]      c2        319
    x[5]      c3        289
    x[5]      c4        314
    x[5]      c5        684
    x[5]      OBJ       -516
    x[6]      c1        727
    x[6]      c2        530
    x[6]      c3        660
    x[6]      c4        796
    x[6]      c5        429
    x[6]      OBJ       -947
    x[7]      c1        923
    x[7]      c2        71
    x[7]      c3        255
    x[7]      c4        839
    x[7]      c5        428
    x[7]      OBJ       -13
    x[8]      c1        7
    x[8]      c2        701
    x[8]      c3        682
    x[8]      c4        113
    x[8]      c5        917
    x[8]      OBJ       -805
    x[9]      c1        564
    x[9]      c2        248
    x[9]      c3        770
    x[9]      c4        71
    x[9]      c5        519
    x[9]      OBJ       -973
    x[10]     c1        446
    x[10]     c2        772
    x[10]     c3        656
    x[10]     c4        249
    x[10]     c5        725
    x[10]     OBJ       -886
    x[11]     c1        194
    x[11]     c2        35
    x[11]     c3        204
    x[11]     c4        804
    x[11]     c5        138
    x[11]     OBJ       -833
    x[12]     c1        192
    x[12]     c2        928
    x[12]     c3        212
    x[12]     c4        270
    x[12]     c5        899
    x[12]     OBJ       -801
    x[13]     c1        381
    x[13]     c2        321
    x[13]     c3        835
    x[13]     c4        767
    x[13]     c5        521
    x[13]     OBJ       -827
    x[14]     c1        602
    x[14]     c2        40
    x[14]     c3        527
    x[14]     c4        644
    x[14]     c5        183
    x[14]     OBJ       -359
    x[15]     c1        951
    x[15]     c2        372
    x[15]     c3        845
    x[15]     c4        255
    x[15]     c5        429
    x[15]     OBJ       -368
    x[16]     c1        463
    x[16]     c2        403
    x[16]     c3        143
    x[16]     c4        219
    x[16]     c5        427
    x[16]     OBJ       -750
    x[17]     c1        895
    x[17]     c2        593
    x[17]     c3        106
    x[17]     c4        739
    x[17]     c5        864
    x[17]     OBJ       -527
    x[18]     c1        144
    x[18]     c2        440
    x[18]     c3        343
    x[18]     c4        354
    x[18]     c5        956
    x[18]     OBJ       -248
    x[19]     c1        288
    x[19]     c2        224
    x[19]     c3        244
    x[19]     c4        191
    x[19]     c5        407
    x[19]     OBJ       -946
    x[20]     c1        99
    x[20]     c2        60
    x[20]     c3        968
    x[20]     c4        952
    x[20]     c5        835
    x[20]     OBJ       -978
RHS
    rhs       c1        4683
    rhs       c2        4216
    rhs       c3        5410
    rhs       c4        5060
    rhs       c5        6214
RANGES
BOUNDS
 BV bounds    x[1]
 BV bounds    x[2]
 BV bounds    x[3]
 BV bounds    x[4]
 BV bounds    x[5]
 BV bounds    x[6]
 BV bounds    x[7]
 BV bounds    x[8]
 BV bounds    x[9]
 BV bounds    x[10]
 BV bounds    x[11]
 BV bounds    x[12]
 BV bounds    x[13]
 BV bounds    x[14]
 BV bounds    x[15]
 BV bounds    x[16]
 BV bounds    x[17]
 BV bounds    x[18]
 BV bounds    x[19]
 BV bounds    x[20]
ENDATA
